language Essence 1.3

letting pos be
        function((1, 1) --> 1, (1, 2) --> 3, (1, 3) --> 5, (2, 1) --> 7, (2, 2) --> 10, (2, 3) --> 13, (3, 1) --> 19,
                 (3, 2) --> 23, (3, 3) --> 27, (4, 1) --> 16, (4, 2) --> 21, (4, 3) --> 26, (5, 1) --> 6, (5, 2) --> 12,
                 (5, 3) --> 18, (6, 1) --> 8, (6, 2) --> 15, (6, 3) --> 22, (7, 1) --> 9, (7, 2) --> 17, (7, 3) --> 25,
                 (8, 1) --> 2, (8, 2) --> 11, (8, 3) --> 20, (9, 1) --> 4, (9, 2) --> 14, (9, 3) --> 24)
letting seq be sequence(1, 8, 1, 9, 1, 5, 2, 6, 7, 2, 8, 5, 2, 9, 6, 4, 7, 5, 3, 8, 4, 6, 3, 9, 7, 4, 3)
